output_file = "7-1-B-60-1.00-36.csv";

n_days = 60;
n_shelves = 7;
n_crops = 1;

crop_shelf_compatible = [
    [1, 1, 1, 1, 1, 1, 1]
];

crop_growth_days = [15];

n_configurations = 2;

crop_growth_day_config = [
    [1, 1, 1, 2, 2, 2, 2, 2, 2, 2, 2, 2, 2, 2, 2]
];

capacity = [
    [12, 12],
[12, 12],
[12, 12],
[12, 12],
[12, 12],
[12, 12],
[12, 12]
];

demand = [
    [0, 0, 0, 0, 0, 0, 0, 0, 0, 0, 0, 0, 0, 0, 0, 0, 0, 0, 8, 0, 2, 0, 0, 0, 0, 6, 0, 0, 4, 0, 0, 7, 0, 7, 0, 3, 4, 0, 0, 0, 8, 1, 5, 0, 0, 0, 0, 0, 0, 0, 0, 3, 9, 0, 0, 0, 0, 4, 0, 0]
];
